C101

VEHICLE
NUMBER     CAPACITY
  25         200

CUSTOMER
CUST NO.   XCOORD.   YCOORD.    DEMAND   READY TIME   DUE DATE   SERVICE TIME

    0      40        50        0        0          1236        0
    1      45        68        10       10         100         90
    2      45        70        30       10         100         90
    3      42        66        10       10         100         90
    4      42        68        10       10         100         90
    5      42        65        10       10         100         90
    6      40        69        20       10         100         90
    7      40        66        20       10         100         90
    8      38        68        20       10         100         90
    9      38        70        10       10         100         90
   10      35        66        10       10         100         90
   11      35        69        10       10         100         90
   12      25        85        20       10         100         90
   13      22        75        30       10         100         90
   14      22        85        10       10         100         90
   15      20        80        40       10         100         90
   16      20        85        40       10         100         90
   17      18        75        20       10         100         90
   18      15        75        20       10         100         90
   19      15        80        10       10         100         90
   20      30        50        10       10         100         90
   21      30        52        20       10         100         90
   22      28        52        20       10         100         90
   23      28        55        10       10         100         90
   24      25        50        10       10         100         90
   25      25        52        40       10         100         90
   26      25        55        10       10         100         90
   27      23        52        10       10         100         90
   28      23        55        20       10         100         90
   29      20        50        10       10         100         90
   30      20        55        10       10         100         90
   31      10        35        20       10         100         90
   32      10        40        30       10         100         90
   33      8         40        40       10         100         90
   34      8         45        20       10         100         90
   35      5         35        10       10         100         90
   36      5         45        10       10         100         90
   37      2         40        20       10         100         90
   38      0         40        30       10         100         90
   39      0         45        20       10         100         90
   40      35        30        10       10         100         90
   41      35        32        10       10         100         90
   42      33        32        20       10         100         90
   43      33        35        10       10         100         90
   44      32        30        10       10         100         90
   45      30        30        10       10         100         90
   46      30        32        30       10         100         90
   47      30        35        10       10         100         90
   48      28        30        10       10         100         90
   49      28        35        10       10         100         90
   50      26        32        10       10         100         90
   51      25        30        10       10         100         90
   52      25        35        10       10         100         90
   53      44        5         20       10         100         90
   54      42        10        40       10         100         90
   55      42        15        10       10         100         90
   56      40        5         30       10         100         90
   57      40        15        40       10         100         90
   58      38        5         30       10         100         90
   59      38        15        10       10         100         90
   60      35        5         20       10         100         90
   61      50        30        10       10         100         90
   62      50        35        20       10         100         90
   63      50        40        50       10         100         90
   64      48        30        10       10         100         90
   65      48        40        10       10         100         90
   66      47        35        10       10         100         90
   67      47        40        10       10         100         90
   68      45        30        10       10         100         90
   69      45        35        10       10         100         90
   70      95        30        30       10         100         90
   71      95        35        20       10         100         90
   72      53        30        10       10         100         90
   73      92        30        10       10         100         90
   74      53        35        50       10         100         90
   75      45        65        20       10         100         90
   76      90        35        10       10         100         90
   77      88        30        10       10         100         90
   78      88        35        20       10         100         90
   79      87        30        10       10         100         90
   80      85        25        10       10         100         90
   81      85        35        30       10         100         90
   82      75        55        20       10         100         90
   83      72        55        10       10         100         90
   84      70        58        20       10         100         90
   85      68        60        30       10         100         90
   86      66        55        10       10         100         90
   87      65        55        20       10         100         90
   88      65        60        30       10         100         90
   89      63        58        10       10         100         90
   90      60        55        10       10         100         90
   91      60        60        10       10         100         90
   92      67        85        20       10         100         90
   93      65        85        40       10         100         90
   94      65        82        10       10         100         90
   95      62        80        30       10         100         90
   96      60        80        10       10         100         90
   97      60        85        30       10         100         90
   98      58        75        20       10         100         90
   99      55        80        10       10         100         90
  100      55        85        20       10         100         90

NAME : C101
DIMENSION : 101
CAPACITY : 200
NODE_COORD_SECTION
0 40.0 50.0
1 45.0 68.0
2 45.0 70.0
3 42.0 66.0
4 42.0 68.0
5 42.0 65.0
6 40.0 69.0
7 40.0 66.0
8 38.0 68.0
9 38.0 70.0
10 35.0 66.0
11 35.0 69.0
12 25.0 85.0
13 22.0 75.0
14 22.0 85.0
15 20.0 80.0
16 20.0 85.0
17 18.0 75.0
18 15.0 75.0
19 15.0 80.0
20 30.0 50.0
21 30.0 52.0
22 28.0 52.0
23 28.0 55.0
24 25.0 50.0
25 25.0 52.0
26 25.0 55.0
27 23.0 52.0
28 23.0 55.0
29 20.0 50.0
30 20.0 55.0
31 10.0 35.0
32 10.0 40.0
33 8.0 40.0
34 8.0 45.0
35 5.0 35.0
36 5.0 45.0
37 2.0 40.0
38 0.0 40.0
39 0.0 45.0
40 35.0 30.0
41 35.0 32.0
42 33.0 32.0
43 33.0 35.0
44 32.0 30.0
45 30.0 30.0
46 30.0 32.0
47 30.0 35.0
48 28.0 30.0
49 28.0 35.0
50 26.0 32.0
51 25.0 30.0
52 25.0 35.0
53 44.0 5.0
54 42.0 10.0
55 42.0 15.0
56 40.0 5.0
57 40.0 15.0
58 38.0 5.0
59 38.0 15.0
60 35.0 5.0
61 50.0 30.0
62 50.0 35.0
63 50.0 40.0
64 48.0 30.0
65 48.0 40.0
66 47.0 35.0
67 47.0 40.0
68 45.0 30.0
69 45.0 35.0
70 95.0 30.0
71 95.0 35.0
72 53.0 30.0
73 92.0 30.0
74 53.0 35.0
75 45.0 65.0
76 90.0 35.0
77 88.0 30.0
78 88.0 35.0
79 87.0 30.0
80 85.0 25.0
81 85.0 35.0
82 75.0 55.0
83 72.0 55.0
84 70.0 58.0
85 68.0 60.0
86 66.0 55.0
87 65.0 55.0
88 65.0 60.0
89 63.0 58.0
90 60.0 55.0
91 60.0 60.0
92 67.0 85.0
93 65.0 85.0
94 65.0 82.0
95 62.0 80.0
96 60.0 80.0
97 60.0 85.0
98 58.0 75.0
99 55.0 80.0
100 55.0 85.0
DEMAND_SECTION
0 0
1 10
2 30
3 10
4 10
5 10
6 20
7 20
8 20
9 10
10 10
11 10
12 20
13 30
14 10
15 40
16 40
17 20
18 20
19 10
20 10
21 20
22 20
23 10
24 10
25 40
26 10
27 10
28 20
29 10
30 10
31 20
32 30
33 40
34 20
35 10
36 10
37 20
38 30
39 20
40 10
41 10
42 20
43 10
44 10
45 10
46 30
47 10
48 10
49 10
50 10
51 10
52 10
53 20
54 40
55 10
56 30
57 40
58 30
59 10
60 20
61 10
62 20
63 50
64 10
65 10
66 10
67 10
68 10
69 10
70 30
71 20
72 10
73 10
74 50
75 20
76 10
77 10
78 20
79 10
80 10
81 30
82 20
83 10
84 20
85 30
86 10
87 20
88 30
89 10
90 10
91 10
92 20
93 40
94 10
95 30
96 10
97 30
98 20
99 10
100 20
DEPOT_SECTION
0
-1
EOF
