R101

VEHICLE
NUMBER     CAPACITY
  25         200

CUSTOMER
CUST NO.   XCOORD.   YCOORD.    DEMAND   READY TIME   DUE DATE   SERVICE TIME
 
    0      35        35        0        0          1236        0     
    1      41        49        10       10         100         90   
    2      35        17        7        10         100         90   
    3      55        45        13       10         100         90   
    4      55        20        19       10         100         90   
    5      15        30        26       10         100         90   
    6      25        30        3        10         100         90   
    7      20        50        5        10         100         90   
    8      10        43        9        10         100         90   
    9      55        60        16       10         100         90   
   10      30        60        16       10         100         90   
   11      20        65        12       10         100         90   
   12      50        35        19       10         100         90   
   13      30        25        23       10         100         90   
   14      15        10        20       10         100         90   
   15      30        5         8        10         100         90   
   16      10        20        19       10         100         90   
   17      5         30        2        10         100         90   
   18      20        40        12       10         100         90   
   19      15        60        17       10         100         90   
   20      45        65        9        10         100         90   
   21      45        20        11       10         100         90   
   22      45        10        18       10         100         90   
   23      55        5         29       10         100         90   
   24      65        35        3        10         100         90   
   25      65        20        6        10         100         90   
   26      45        30        17       10         100         90   
   27      35        40        16       10         100         90   
   28      41        37        16       10         100         90   
   29      64        42        9        10         100         90   
   30      40        60        21       10         100         90   
   31      31        52        27       10         100         90   
   32      35        69        23       10         100         90   
   33      53        52        11       10         100         90   
   34      65        55        14       10         100         90   
   35      63        65        8        10         100         90   
   36      2         60        5        10         100         90   
   37      20        20        8        10         100         90   
   38      5         5         16       10         100         90   
   39      60        12        31       10         100         90   
   40      40        25        9        10         100         90   
   41      42        7         5        10         100         90   
   42      24        12        5        10         100         90   
   43      23        3         7        10         100         90   
   44      11        14        18       10         100         90   
   45      6         38        16       10         100         90   
   46      2         48        1        10         100         90   
   47      8         56        27       10         100         90   
   48      13        52        36       10         100         90   
   49      6         68        30       10         100         90   
   50      47        47        13       10         100         90   
   51      49        58        10       10         100         90   
   52      27        43        9        10         100         90   
   53      37        31        14       10         100         90   
   54      57        29        18       10         100         90   
   55      63        23        2        10         100         90   
   56      53        12        6        10         100         90   
   57      32        12        7        10         100         90   
   58      36        26        18       10         100         90   
   59      21        24        28       10         100         90   
   60      17        34        3        10         100         90   
   61      12        24        13       10         100         90   
   62      24        58        19       10         100         90   
   63      27        69        10       10         100         90   
   64      15        77        9        10         100         90   
   65      62        77        20       10         100         90   
   66      49        73        25       10         100         90   
   67      67        5         25       10         100         90   
   68      56        39        36       10         100         90   
   69      37        47        6        10         100         90   
   70      37        56        5        10         100         90   
   71      57        68        15       10         100         90   
   72      47        16        25       10         100         90   
   73      44        17        9        10         100         90   
   74      46        13        8        10         100         90   
   75      49        11        18       10         100         90   
   76      49        42        13       10         100         90   
   77      53        43        14       10         100         90   
   78      61        52        3        10         100         90   
   79      57        48        23       10         100         90   
   80      56        37        6        10         100         90   
   81      55        54        26       10         100         90   
   82      15        47        16       10         100         90   
   83      14        37        11       10         100         90   
   84      11        31        7        10         100         90   
   85      16        22        41       10         100         90   
   86      4         18        35       10         100         90   
   87      28        18        26       10         100         90   
   88      26        52        9        10         100         90   
   89      26        35        15       10         100         90   
   90      31        67        3        10         100         90   
   91      15        19        1        10         100         90   
   92      22        22        2        10         100         90   
   93      18        24        22       10         100         90   
   94      26        27        27       10         100         90   
   95      25        24        20       10         100         90   
   96      22        27        11       10         100         90   
   97      25        21        12       10         100         90   
   98      19        21        10       10         100         90   
   99      20        26        9        10         100         90   
  100      18        18        17       10         100         90   

NAME : R101
DIMENSION : 101
CAPACITY : 200
NODE_COORD_SECTION
0 35.0 35.0
1 41.0 49.0
2 35.0 17.0
3 55.0 45.0
4 55.0 20.0
5 15.0 30.0
6 25.0 30.0
7 20.0 50.0
8 10.0 43.0
9 55.0 60.0
10 30.0 60.0
11 20.0 65.0
12 50.0 35.0
13 30.0 25.0
14 15.0 10.0
15 30.0 5.0
16 10.0 20.0
17 5.0 30.0
18 20.0 40.0
19 15.0 60.0
20 45.0 65.0
21 45.0 20.0
22 45.0 10.0
23 55.0 5.0
24 65.0 35.0
25 65.0 20.0
26 45.0 30.0
27 35.0 40.0
28 41.0 37.0
29 64.0 42.0
30 40.0 60.0
31 31.0 52.0
32 35.0 69.0
33 53.0 52.0
34 65.0 55.0
35 63.0 65.0
36 2.0 60.0
37 20.0 20.0
38 5.0 5.0
39 60.0 12.0
40 40.0 25.0
41 42.0 7.0
42 24.0 12.0
43 23.0 3.0
44 11.0 14.0
45 6.0 38.0
46 2.0 48.0
47 8.0 56.0
48 13.0 52.0
49 6.0 68.0
50 47.0 47.0
51 49.0 58.0
52 27.0 43.0
53 37.0 31.0
54 57.0 29.0
55 63.0 23.0
56 53.0 12.0
57 32.0 12.0
58 36.0 26.0
59 21.0 24.0
60 17.0 34.0
61 12.0 24.0
62 24.0 58.0
63 27.0 69.0
64 15.0 77.0
65 62.0 77.0
66 49.0 73.0
67 67.0 5.0
68 56.0 39.0
69 37.0 47.0
70 37.0 56.0
71 57.0 68.0
72 47.0 16.0
73 44.0 17.0
74 46.0 13.0
75 49.0 11.0
76 49.0 42.0
77 53.0 43.0
78 61.0 52.0
79 57.0 48.0
80 56.0 37.0
81 55.0 54.0
82 15.0 47.0
83 14.0 37.0
84 11.0 31.0
85 16.0 22.0
86 4.0 18.0
87 28.0 18.0
88 26.0 52.0
89 26.0 35.0
90 31.0 67.0
91 15.0 19.0
92 22.0 22.0
93 18.0 24.0
94 26.0 27.0
95 25.0 24.0
96 22.0 27.0
97 25.0 21.0
98 19.0 21.0
99 20.0 26.0
100 18.0 18.0
DEMAND_SECTION
0 0
1 10
2 7
3 13
4 19
5 26
6 3
7 5
8 9
9 16
10 16
11 12
12 19
13 23
14 20
15 8
16 19
17 2
18 12
19 17
20 9
21 11
22 18
23 29
24 3
25 6
26 17
27 16
28 16
29 9
30 21
31 27
32 23
33 11
34 14
35 8
36 5
37 8
38 16
39 31
40 9
41 5
42 5
43 7
44 18
45 16
46 1
47 27
48 36
49 30
50 13
51 10
52 9
53 14
54 18
55 2
56 6
57 7
58 18
59 28
60 3
61 13
62 19
63 10
64 9
65 20
66 25
67 25
68 36
69 6
70 5
71 15
72 25
73 9
74 8
75 18
76 13
77 14
78 3
79 23
80 6
81 26
82 16
83 11
84 7
85 41
86 35
87 26
88 9
89 15
90 3
91 1
92 2
93 22
94 27
95 20
96 11
97 12
98 10
99 9
100 17
DEPOT_SECTION
0
-1
EOF