RC101

VEHICLE
NUMBER     CAPACITY
  25         200

CUSTOMER
CUST NO.   XCOORD.   YCOORD.    DEMAND   READY TIME   DUE DATE   SERVICE TIME

    0      40        50        0        0          1236        0
    1      25        85        20       10         100         90
    2      22        75        30       10         100         90
    3      22        85        10       10         100         90
    4      20        80        40       10         100         90
    5      20        85        20       10         100         90
    6      18        75        20       10         100         90
    7      15        75        20       10         100         90
    8      15        80        10       10         100         90
    9      10        35        20       10         100         90
   10      10        40        30       10         100         90
   11      8         40        40       10         100         90
   12      8         45        20       10         100         90
   13      5         35        10       10         100         90
   14      5         45        10       10         100         90
   15      2         40        20       10         100         90
   16      0         40        20       10         100         90
   17      0         45        20       10         100         90
   18      44        5         20       10         100         90
   19      42        10        40       10         100         90
   20      42        15        10       10         100         90
   21      40        5         10       10         100         90
   22      40        15        40       10         100         90
   23      38        5         30       10         100         90
   24      38        15        10       10         100         90
   25      35        5         20       10         100         90
   26      95        30        30       10         100         90
   27      95        35        20       10         100         90
   28      92        30        10       10         100         90
   29      90        35        10       10         100         90
   30      88        30        10       10         100         90
   31      88        35        20       10         100         90
   32      87        30        10       10         100         90
   33      85        25        10       10         100         90
   34      85        35        30       10         100         90
   35      67        85        20       10         100         90
   36      65        85        40       10         100         90
   37      65        82        10       10         100         90
   38      62        80        30       10         100         90
   39      60        80        10       10         100         90
   40      60        85        30       10         100         90
   41      58        75        20       10         100         90
   42      55        80        10       10         100         90
   43      55        85        20       10         100         90
   44      55        82        10       10         100         90
   45      20        82        10       10         100         90
   46      18        80        10       10         100         90
   47      2         45        10       10         100         90
   48      42        5         10       10         100         90
   49      42        12        10       10         100         90
   50      72        35        30       10         100         90
   51      55        20        19       10         100         90
   52      25        30        3        10         100         90
   53      20        50        5        10         100         90
   54      55        60        16       10         100         90
   55      30        60        16       10         100         90
   56      50        35        19       10         100         90
   57      30        25        23       10         100         90
   58      15        10        20       10         100         90
   59      10        20        19       10         100         90
   60      15        60        17       10         100         90
   61      45        65        9        10         100         90
   62      65        35        3        10         100         90
   63      65        20        6        10         100         90
   64      45        30        17       10         100         90
   65      35        40        16       10         100         90
   66      41        37        16       10         100         90
   67      64        42        9        10         100         90
   68      40        60        21       10         100         90
   69      31        52        27       10         100         90
   70      35        69        23       10         100         90
   71      65        55        14       10         100         90
   72      63        65        8        10         100         90
   73      2         60        5        10         100         90
   74      20        20        8        10         100         90
   75      5         5         16       10         100         90
   76      60        12        31       10         100         90
   77      23        3         7        10         100         90
   78      8         56        27       10         100         90
   79      6         68        30       10         100         90
   80      47        47        13       10         100         90
   81      49        58        10       10         100         90
   82      27        43        9        10         100         90
   83      37        31        14       10         100         90
   84      57        29        18       10         100         90
   85      63        23        2        10         100         90
   86      21        24        28       10         100         90
   87      12        24        13       10         100         90
   88      24        58        19       10         100         90
   89      67        5         25       10         100         90
   90      37        47        6        10         100         90
   91      49        42        13       10         100         90
   92      53        43        14       10         100         90
   93      61        52        3        10         100         90
   94      57        48        23       10         100         90
   95      56        37        6        10         100         90
   96      55        54        26       10         100         90
   97      4         18        35       10         100         90
   98      26        52        9        10         100         90
   99      26        35        15       10         100         90
  100      31        67        3        10         100         90

NAME : RC101
DIMENSION : 101
CAPACITY : 200
NODE_COORD_SECTION
0 40.0 50.0
1 25.0 85.0
2 22.0 75.0
3 22.0 85.0
4 20.0 80.0
5 20.0 85.0
6 18.0 75.0
7 15.0 75.0
8 15.0 80.0
9 10.0 35.0
10 10.0 40.0
11 8.0 40.0
12 8.0 45.0
13 5.0 35.0
14 5.0 45.0
15 2.0 40.0
16 0.0 40.0
17 0.0 45.0
18 44.0 5.0
19 42.0 10.0
20 42.0 15.0
21 40.0 5.0
22 40.0 15.0
23 38.0 5.0
24 38.0 15.0
25 35.0 5.0
26 95.0 30.0
27 95.0 35.0
28 92.0 30.0
29 90.0 35.0
30 88.0 30.0
31 88.0 35.0
32 87.0 30.0
33 85.0 25.0
34 85.0 35.0
35 67.0 85.0
36 65.0 85.0
37 65.0 82.0
38 62.0 80.0
39 60.0 80.0
40 60.0 85.0
41 58.0 75.0
42 55.0 80.0
43 55.0 85.0
44 55.0 82.0
45 20.0 82.0
46 18.0 80.0
47 2.0 45.0
48 42.0 5.0
49 42.0 12.0
50 72.0 35.0
51 55.0 20.0
52 25.0 30.0
53 20.0 50.0
54 55.0 60.0
55 30.0 60.0
56 50.0 35.0
57 30.0 25.0
58 15.0 10.0
59 10.0 20.0
60 15.0 60.0
61 45.0 65.0
62 65.0 35.0
63 65.0 20.0
64 45.0 30.0
65 35.0 40.0
66 41.0 37.0
67 64.0 42.0
68 40.0 60.0
69 31.0 52.0
70 35.0 69.0
71 65.0 55.0
72 63.0 65.0
73 2.0 60.0
74 20.0 20.0
75 5.0 5.0
76 60.0 12.0
77 23.0 3.0
78 8.0 56.0
79 6.0 68.0
80 47.0 47.0
81 49.0 58.0
82 27.0 43.0
83 37.0 31.0
84 57.0 29.0
85 63.0 23.0
86 21.0 24.0
87 12.0 24.0
88 24.0 58.0
89 67.0 5.0
90 37.0 47.0
91 49.0 42.0
92 53.0 43.0
93 61.0 52.0
94 57.0 48.0
95 56.0 37.0
96 55.0 54.0
97 4.0 18.0
98 26.0 52.0
99 26.0 35.0
100 31.0 67.0
DEMAND_SECTION
0 0
1 20
2 30
3 10
4 40
5 20
6 20
7 20
8 10
9 20
10 30
11 40
12 20
13 10
14 10
15 20
16 20
17 20
18 20
19 40
20 10
21 10
22 40
23 30
24 10
25 20
26 30
27 20
28 10
29 10
30 10
31 20
32 10
33 10
34 30
35 20
36 40
37 10
38 30
39 10
40 30
41 20
42 10
43 20
44 10
45 10
46 10
47 10
48 10
49 10
50 30
51 19
52 3
53 5
54 16
55 16
56 19
57 23
58 20
59 19
60 17
61 9
62 3
63 6
64 17
65 16
66 16
67 9
68 21
69 27
70 23
71 14
72 8
73 5
74 8
75 16
76 31
77 7
78 27
79 30
80 13
81 10
82 9
83 14
84 18
85 2
86 28
87 13
88 19
89 25
90 6
91 13
92 14
93 3
94 23
95 6
96 26
97 35
98 9
99 15
100 3
DEPOT_SECTION
0
-1
EOF
