NAME : B-n31-k5
COMMENT : (Augerat et al, No of trucks: 5, Optimal value: 672)
TYPE : CVRP
DIMENSION : 31
EDGE_WEIGHT_TYPE : EUC_2D
CAPACITY : 100
NODE_COORD_SECTION
1 17 76
2 24 6
3 96 29
4 17 22
5 29 15
6 22 74
7 29 97
8 49 11
9 10 3
10 79 71
11 17 21
12 81 85
13 32 95
14 50 54
15 35 39
16 95 34
17 95 21
18 68 53
19 21 80
20 10 85
21 53 72
22 4 19
23 47 44
24 69 13
25 31 59
26 15 47
27 10 59
28 83 77
29 25 51
30 2 97
31 37 56
DEMAND_SECTION
1 0
2 25
3 14
4 3
5 22
6 23
7 13
8 13
9 24
10 15
11 9
12 18
13 13
14 19
15 19
16 22
17 13
18 13
19 13
20 17
21 19
22 25
23 3
24 23
25 16
26 10
27 17
28 13
29 13
30 24
31 13
DEPOT_SECTION
 1
 -1
EOF
